52
46 12 324
12 13 206
13 51 319
51 10 399
10 50 285
50 11 188
11 27 182
27 26 110
26 25 126
25 24 412
24 3 109
3 5 70
5 14 40
14 4 25
4 23 32
23 47 16
47 37 49
37 36 43
36 39 41
39 38 43
38 35 43
35 34 15
34 33 21
33 43 80
43 45 131
45 15 156
15 49 130
49 19 35
19 22 94
22 30 152
30 17 80
17 21 116
21 48 94
48 31 50
31 42 394
42 32 365
32 9 501
9 8 83
8 7 183
7 40 64
40 18 92
18 44 75
44 2 220
2 16 217
16 20 253
20 41 290
41 6 76
6 1 45
1 52 150
52 29 436
29 28 260
28 46 523

